c Random generated cnf formula, satisfiable: true
p cnf 10 50
-1 -2 -6 0
8 9 6 0
10 -8 3 0
-9 -8 7 0
-4 -10 -3 0
-9 1 -10 0
8 2 5 0
-10 -7 -3 0
-9 6 -1 0
9 5 -7 0
-1 -9 3 0
-4 2 7 0
-9 -1 6 0
8 -2 9 0
3 4 -1 0
10 -4 -1 0
8 5 -7 0
-4 -6 -10 0
-3 4 -8 0
8 -7 -2 0
1 3 -6 0
5 -10 6 0
-6 1 -2 0
-6 7 -10 0
2 -5 8 0
8 -7 10 0
-2 1 -5 0
9 -5 8 0
3 -9 -5 0
2 7 -5 0
-4 5 -7 0
6 -3 4 0
-5 3 9 0
10 5 3 0
-3 4 -6 0
-10 7 8 0
-4 1 -8 0
3 4 6 0
-3 -8 -6 0
-9 -7 -2 0
8 -2 9 0
10 2 5 0
-10 2 8 0
-6 -8 -3 0
-10 1 -4 0
9 7 -2 0
9 3 -4 0
-6 -9 10 0
3 5 4 0
-7 8 -10 0
